
Gurobi 6.5.2 (win64) logging started 07/24/16 17:47:39


Gurobi 6.5.2 (win64) logging started 07/24/16 17:47:39

Optimize a model with 3572 rows, 351 columns and 7865 nonzeros
Coefficient statistics:
  Matrix range    [1e+00, 4e+02]
  Objective range [2e+00, 4e+02]
  Bounds range    [1e+00, 1e+00]
  RHS range       [1e+00, 2e+03]
Presolve removed 3441 rows and 36 columns
Presolve time: 0.02s
Presolved: 131 rows, 315 columns, 1564 nonzeros
Variable types: 0 continuous, 315 integer (315 binary)

Root relaxation: objective 2.124000e+03, 225 iterations, 0.00 seconds

    Nodes    |    Current Node    |     Objective Bounds      |     Work
 Expl Unexpl |  Obj  Depth IntInf | Incumbent    BestBd   Gap | It/Node Time

*    0     0               0    2124.0000000 2124.00000  0.00%     -    0s

Explored 0 nodes (278 simplex iterations) in 0.02 seconds
Thread count was 8 (of 8 available processors)

Optimal solution found (tolerance 1.00e-04)
Best objective 2.124000000000e+03, best bound 2.124000000000e+03, gap 0.0%

Wrote requested result file 'H1\instance27\\Results27SG_Sol5.lp'

